#######################################
### Exact MIP solver for the HHCRSP ###
#######################################
-- Instance file: new-instances/HHCRSP_400_80_26_0.8_C_RC.txt
-- Max threads: 4
-- Time limit: 999999 seconds
-- Use initial solution: No
Trivial flow violations prevented generating 2701508 variables.
Version identifier: 20.1.0.0 | 2020-11-10 | 9bedb6d68
CPXPARAM_Threads                                 4
CPXPARAM_Emphasis_Memory                         1
CPXPARAM_TimeLimit                               999999
Tried aggregator 1 time.
Presolve has eliminated 81138 rows and 18247 columns...
LP Presolve eliminated 81138 rows and 18247 columns.
Reduced LP has 2930134 rows, 2779246 columns, and 82607703 nonzeros.
Presolve time = 85.52 sec. (17535.75 ticks)
Compression time = 22.14 sec. (5.54 ticks)
Compression reduced 1195.24 MB A matrix to 359.79 MB
Symmetry aggregator did 4972377 additional substitutions.
Elapsed time = 109.11 sec. (18314.20 ticks, 1 iterations)

Iteration log . . .
Iteration:     1   Dual objective     =             0.000000
Iteration:  1823   Dual objective     =           481.500000

Dual crossover.
  Dual:  Fixing 2937 variables.
     2936 DMoves:  Infeasibility  2.55939714e-12  Objective  4.82666667e+02
        0 DMoves:  Infeasibility  1.75372680e-12  Objective  4.82666667e+02
  Dual:  Pushed 76, exchanged 2861.
  Primal:  Fixing 2497 variables.
     2496 PMoves:  Infeasibility  2.77555756e-17  Objective  4.82666667e+02
        0 PMoves:  Infeasibility  2.77555756e-17  Objective  4.82666667e+02
  Primal:  Pushed 2299, exchanged 198.

Solution status from MIP model:
-- Processing time: 149.399 sec.
-- Memory used: 1888.54 MB
-- Best bound: inf
-- Obj value: 482.667
-- Gap: inf%
-- Total distance: 1448
-- Total tardiness: 0
-- Largest tardiness: 0
